! HF STO-3G LARGEPRINT

%output
	Print[ P_Basis ] 2
	Print[ P_MOs ] 1
end

* xyzfile 0 1 hli-b.xyz
